; benchmark generated from python API
(set-info :status unknown)
(declare-fun makespan () Int)
(declare-fun 0_y () Int)
(declare-fun 0_x () Int)
(declare-fun 1_y () Int)
(declare-fun 1_x () Int)
(declare-fun 2_y () Int)
(declare-fun 2_x () Int)
(declare-fun 3_y () Int)
(declare-fun 3_x () Int)
(declare-fun 4_y () Int)
(declare-fun 4_x () Int)
(declare-fun 5_y () Int)
(declare-fun 5_x () Int)
(declare-fun 6_y () Int)
(declare-fun 6_x () Int)
(declare-fun 7_y () Int)
(declare-fun 7_x () Int)
(assert
 (>= makespan 12))
(assert
 (<= makespan 17))
(assert
 (let ((?x129444 (+ 0_y 3)))
 (<= ?x129444 makespan)))
(assert
 (let ((?x129446 (+ 0_x 3)))
 (<= ?x129446 12)))
(assert
 (>= 0_x 0))
(assert
 (<= 0_y 14))
(assert
 (>= 0_y 0))
(assert
 (let ((?x7046 (+ 1_y 4)))
 (<= ?x7046 makespan)))
(assert
 (let ((?x16613 (+ 1_x 3)))
 (<= ?x16613 12)))
(assert
 (>= 1_x 0))
(assert
 (<= 1_y 13))
(assert
 (>= 1_y 0))
(assert
 (let ((?x129407 (+ 2_y 5)))
 (<= ?x129407 makespan)))
(assert
 (let ((?x129409 (+ 2_x 3)))
 (<= ?x129409 12)))
(assert
 (>= 2_x 0))
(assert
 (<= 2_y 12))
(assert
 (>= 2_y 0))
(assert
 (let ((?x129398 (+ 3_y 6)))
 (<= ?x129398 makespan)))
(assert
 (let ((?x11109 (+ 3_x 3)))
 (<= ?x11109 12)))
(assert
 (>= 3_x 0))
(assert
 (<= 3_y 11))
(assert
 (>= 3_y 0))
(assert
 (let ((?x129370 (+ 4_y 7)))
 (<= ?x129370 makespan)))
(assert
 (let ((?x129371 (+ 4_x 3)))
 (<= ?x129371 12)))
(assert
 (>= 4_x 0))
(assert
 (<= 4_y 10))
(assert
 (>= 4_y 0))
(assert
 (let ((?x129360 (+ 5_y 8)))
 (<= ?x129360 makespan)))
(assert
 (let ((?x129362 (+ 5_x 3)))
 (<= ?x129362 12)))
(assert
 (>= 5_x 0))
(assert
 (<= 5_y 9))
(assert
 (>= 5_y 0))
(assert
 (let ((?x129351 (+ 6_y 9)))
 (<= ?x129351 makespan)))
(assert
 (let ((?x129334 (+ 6_x 3)))
 (<= ?x129334 12)))
(assert
 (>= 6_x 0))
(assert
 (<= 6_y 8))
(assert
 (>= 6_y 0))
(assert
 (let ((?x15714 (+ 7_y 3)))
 (<= ?x15714 makespan)))
(assert
 (let ((?x129324 (+ 7_x 6)))
 (<= ?x129324 12)))
(assert
 (>= 7_x 0))
(assert
 (<= 7_y 14))
(assert
 (>= 7_y 0))
(assert
 (or (<= (+ 0_x 3) 1_x) (<= (+ 0_y 3) 1_y) (<= (+ 1_x 3) 0_x) (<= (+ 1_y 4) 0_y)))
(assert
 (or (<= (+ 0_x 3) 2_x) (<= (+ 0_y 3) 2_y) (<= (+ 2_x 3) 0_x) (<= (+ 2_y 5) 0_y)))
(assert
 (or (<= (+ 0_x 3) 3_x) (<= (+ 0_y 3) 3_y) (<= (+ 3_x 3) 0_x) (<= (+ 3_y 6) 0_y)))
(assert
 (or (<= (+ 0_x 3) 4_x) (<= (+ 0_y 3) 4_y) (<= (+ 4_x 3) 0_x) (<= (+ 4_y 7) 0_y)))
(assert
 (or (<= (+ 0_x 3) 5_x) (<= (+ 0_y 3) 5_y) (<= (+ 5_x 3) 0_x) (<= (+ 5_y 8) 0_y)))
(assert
 (or (<= (+ 0_x 3) 6_x) (<= (+ 0_y 3) 6_y) (<= (+ 6_x 3) 0_x) (<= (+ 6_y 9) 0_y)))
(assert
 (or (<= (+ 0_x 3) 7_x) (<= (+ 0_y 3) 7_y) (<= (+ 7_x 6) 0_x) (<= (+ 7_y 3) 0_y)))
(assert
 (or (<= (+ 1_x 3) 2_x) (<= (+ 1_y 4) 2_y) (<= (+ 2_x 3) 1_x) (<= (+ 2_y 5) 1_y)))
(assert
 (or (<= (+ 1_x 3) 3_x) (<= (+ 1_y 4) 3_y) (<= (+ 3_x 3) 1_x) (<= (+ 3_y 6) 1_y)))
(assert
 (or (<= (+ 1_x 3) 4_x) (<= (+ 1_y 4) 4_y) (<= (+ 4_x 3) 1_x) (<= (+ 4_y 7) 1_y)))
(assert
 (or (<= (+ 1_x 3) 5_x) (<= (+ 1_y 4) 5_y) (<= (+ 5_x 3) 1_x) (<= (+ 5_y 8) 1_y)))
(assert
 (or (<= (+ 1_x 3) 6_x) (<= (+ 1_y 4) 6_y) (<= (+ 6_x 3) 1_x) (<= (+ 6_y 9) 1_y)))
(assert
 (or (<= (+ 1_x 3) 7_x) (<= (+ 1_y 4) 7_y) (<= (+ 7_x 6) 1_x) (<= (+ 7_y 3) 1_y)))
(assert
 (or (<= (+ 2_x 3) 3_x) (<= (+ 2_y 5) 3_y) (<= (+ 3_x 3) 2_x) (<= (+ 3_y 6) 2_y)))
(assert
 (or (<= (+ 2_x 3) 4_x) (<= (+ 2_y 5) 4_y) (<= (+ 4_x 3) 2_x) (<= (+ 4_y 7) 2_y)))
(assert
 (or (<= (+ 2_x 3) 5_x) (<= (+ 2_y 5) 5_y) (<= (+ 5_x 3) 2_x) (<= (+ 5_y 8) 2_y)))
(assert
 (or (<= (+ 2_x 3) 6_x) (<= (+ 2_y 5) 6_y) (<= (+ 6_x 3) 2_x) (<= (+ 6_y 9) 2_y)))
(assert
 (or (<= (+ 2_x 3) 7_x) (<= (+ 2_y 5) 7_y) (<= (+ 7_x 6) 2_x) (<= (+ 7_y 3) 2_y)))
(assert
 (or (<= (+ 3_x 3) 4_x) (<= (+ 3_y 6) 4_y) (<= (+ 4_x 3) 3_x) (<= (+ 4_y 7) 3_y)))
(assert
 (or (<= (+ 3_x 3) 5_x) (<= (+ 3_y 6) 5_y) (<= (+ 5_x 3) 3_x) (<= (+ 5_y 8) 3_y)))
(assert
 (or (<= (+ 3_x 3) 6_x) (<= (+ 3_y 6) 6_y) (<= (+ 6_x 3) 3_x) (<= (+ 6_y 9) 3_y)))
(assert
 (or (<= (+ 3_x 3) 7_x) (<= (+ 3_y 6) 7_y) (<= (+ 7_x 6) 3_x) (<= (+ 7_y 3) 3_y)))
(assert
 (or (<= (+ 4_x 3) 5_x) (<= (+ 4_y 7) 5_y) (<= (+ 5_x 3) 4_x) (<= (+ 5_y 8) 4_y)))
(assert
 (or (<= (+ 4_x 3) 6_x) (<= (+ 4_y 7) 6_y) (<= (+ 6_x 3) 4_x) (<= (+ 6_y 9) 4_y)))
(assert
 (or (<= (+ 4_x 3) 7_x) (<= (+ 4_y 7) 7_y) (<= (+ 7_x 6) 4_x) (<= (+ 7_y 3) 4_y)))
(assert
 (or (<= (+ 5_x 3) 6_x) (<= (+ 5_y 8) 6_y) (<= (+ 6_x 3) 5_x) (<= (+ 6_y 9) 5_y)))
(assert
 (or (<= (+ 5_x 3) 7_x) (<= (+ 5_y 8) 7_y) (<= (+ 7_x 6) 5_x) (<= (+ 7_y 3) 5_y)))
(assert
 (or (<= (+ 6_x 3) 7_x) (<= (+ 6_y 9) 7_y) (<= (+ 7_x 6) 6_x) (<= (+ 7_y 3) 6_y)))
(assert
 (let ((?x17107 (+ (ite (and (<= 0_y 0) (>= (+ 0_y 3) 0)) 3 0))))
 (<= ?x17107 12)))
(assert
 (let ((?x128748 (+ (ite (and (<= 1_y 0) (>= (+ 1_y 4) 0)) 3 0))))
 (<= ?x128748 12)))
(assert
 (let ((?x128737 (+ (ite (and (<= 2_y 0) (>= (+ 2_y 5) 0)) 3 0))))
 (<= ?x128737 12)))
(assert
 (let ((?x128726 (+ (ite (and (<= 3_y 0) (>= (+ 3_y 6) 0)) 3 0))))
 (<= ?x128726 12)))
(assert
 (let ((?x128715 (+ (ite (and (<= 4_y 0) (>= (+ 4_y 7) 0)) 3 0))))
 (<= ?x128715 12)))
(assert
 (let ((?x128703 (+ (ite (and (<= 5_y 0) (>= (+ 5_y 8) 0)) 3 0))))
 (<= ?x128703 12)))
(assert
 (let ((?x18115 (+ (ite (and (<= 6_y 0) (>= (+ 6_y 9) 0)) 3 0))))
 (<= ?x18115 12)))
(assert
 (let ((?x128664 (+ (ite (and (<= 7_y 0) (>= (+ 7_y 3) 0)) 6 0))))
 (<= ?x128664 12)))
(assert
 (let ((?x128654 (+ (ite (and (<= 0_y 1) (>= (+ 0_y 3) 1)) 3 0))))
 (<= ?x128654 12)))
(assert
 (let ((?x20328 (+ (ite (and (<= 1_y 1) (>= (+ 1_y 4) 1)) 3 0))))
 (<= ?x20328 12)))
(assert
 (let ((?x128616 (+ (ite (and (<= 2_y 1) (>= (+ 2_y 5) 1)) 3 0))))
 (<= ?x128616 12)))
(assert
 (let ((?x128605 (+ (ite (and (<= 3_y 1) (>= (+ 3_y 6) 1)) 3 0))))
 (<= ?x128605 12)))
(assert
 (let ((?x128598 (+ (ite (and (<= 4_y 1) (>= (+ 4_y 7) 1)) 3 0))))
 (<= ?x128598 12)))
(assert
 (let ((?x128576 (+ (ite (and (<= 5_y 1) (>= (+ 5_y 8) 1)) 3 0))))
 (<= ?x128576 12)))
(assert
 (let ((?x128567 (+ (ite (and (<= 6_y 1) (>= (+ 6_y 9) 1)) 3 0))))
 (<= ?x128567 12)))
(assert
 (let ((?x128540 (+ (ite (and (<= 7_y 1) (>= (+ 7_y 3) 1)) 6 0))))
 (<= ?x128540 12)))
(assert
 (let ((?x128531 (+ (ite (and (<= 0_y 2) (>= (+ 0_y 3) 2)) 3 0))))
 (<= ?x128531 12)))
(assert
 (let ((?x128504 (+ (ite (and (<= 1_y 2) (>= (+ 1_y 4) 2)) 3 0))))
 (<= ?x128504 12)))
(assert
 (let ((?x128498 (+ (ite (and (<= 2_y 2) (>= (+ 2_y 5) 2)) 3 0))))
 (<= ?x128498 12)))
(assert
 (let ((?x128476 (+ (ite (and (<= 3_y 2) (>= (+ 3_y 6) 2)) 3 0))))
 (<= ?x128476 12)))
(assert
 (let ((?x128467 (+ (ite (and (<= 4_y 2) (>= (+ 4_y 7) 2)) 3 0))))
 (<= ?x128467 12)))
(assert
 (let ((?x128440 (+ (ite (and (<= 5_y 2) (>= (+ 5_y 8) 2)) 3 0))))
 (<= ?x128440 12)))
(assert
 (let ((?x128431 (+ (ite (and (<= 6_y 2) (>= (+ 6_y 9) 2)) 3 0))))
 (<= ?x128431 12)))
(assert
 (let ((?x128404 (+ (ite (and (<= 7_y 2) (>= (+ 7_y 3) 2)) 6 0))))
 (<= ?x128404 12)))
(assert
 (let ((?x128395 (+ (ite (and (<= 0_y 3) (>= (+ 0_y 3) 3)) 3 0))))
 (<= ?x128395 12)))
(assert
 (let ((?x128367 (+ (ite (and (<= 1_y 3) (>= (+ 1_y 4) 3)) 3 0))))
 (<= ?x128367 12)))
(assert
 (let ((?x128358 (+ (ite (and (<= 2_y 3) (>= (+ 2_y 5) 3)) 3 0))))
 (<= ?x128358 12)))
(assert
 (let ((?x128331 (+ (ite (and (<= 3_y 3) (>= (+ 3_y 6) 3)) 3 0))))
 (<= ?x128331 12)))
(assert
 (let ((?x128322 (+ (ite (and (<= 4_y 3) (>= (+ 4_y 7) 3)) 3 0))))
 (<= ?x128322 12)))
(assert
 (let ((?x128295 (+ (ite (and (<= 5_y 3) (>= (+ 5_y 8) 3)) 3 0))))
 (<= ?x128295 12)))
(assert
 (let ((?x128286 (+ (ite (and (<= 6_y 3) (>= (+ 6_y 9) 3)) 3 0))))
 (<= ?x128286 12)))
(assert
 (let ((?x128259 (+ (ite (and (<= 7_y 3) (>= (+ 7_y 3) 3)) 6 0))))
 (<= ?x128259 12)))
(assert
 (let ((?x128249 (+ (ite (and (<= 0_y 4) (>= (+ 0_y 3) 4)) 3 0))))
 (<= ?x128249 12)))
(assert
 (let ((?x128222 (+ (ite (and (<= 1_y 4) (>= (+ 1_y 4) 4)) 3 0))))
 (<= ?x128222 12)))
(assert
 (let ((?x128212 (+ (ite (and (<= 2_y 4) (>= (+ 2_y 5) 4)) 3 0))))
 (<= ?x128212 12)))
(assert
 (let ((?x128203 (+ (ite (and (<= 3_y 4) (>= (+ 3_y 6) 4)) 3 0))))
 (<= ?x128203 12)))
(assert
 (let ((?x128176 (+ (ite (and (<= 4_y 4) (>= (+ 4_y 7) 4)) 3 0))))
 (<= ?x128176 12)))
(assert
 (let ((?x128167 (+ (ite (and (<= 5_y 4) (>= (+ 5_y 8) 4)) 3 0))))
 (<= ?x128167 12)))
(assert
 (let ((?x128140 (+ (ite (and (<= 6_y 4) (>= (+ 6_y 9) 4)) 3 0))))
 (<= ?x128140 12)))
(assert
 (let ((?x128131 (+ (ite (and (<= 7_y 4) (>= (+ 7_y 3) 4)) 6 0))))
 (<= ?x128131 12)))
(assert
 (let ((?x128104 (+ (ite (and (<= 0_y 5) (>= (+ 0_y 3) 5)) 3 0))))
 (<= ?x128104 12)))
(assert
 (let ((?x128095 (+ (ite (and (<= 1_y 5) (>= (+ 1_y 4) 5)) 3 0))))
 (<= ?x128095 12)))
(assert
 (let ((?x128068 (+ (ite (and (<= 2_y 5) (>= (+ 2_y 5) 5)) 3 0))))
 (<= ?x128068 12)))
(assert
 (let ((?x128058 (+ (ite (and (<= 3_y 5) (>= (+ 3_y 6) 5)) 3 0))))
 (<= ?x128058 12)))
(assert
 (let ((?x128038 (+ (ite (and (<= 4_y 5) (>= (+ 4_y 7) 5)) 3 0))))
 (<= ?x128038 12)))
(assert
 (let ((?x128030 (+ (ite (and (<= 5_y 5) (>= (+ 5_y 8) 5)) 3 0))))
 (<= ?x128030 12)))
(assert
 (let ((?x128003 (+ (ite (and (<= 6_y 5) (>= (+ 6_y 9) 5)) 3 0))))
 (<= ?x128003 12)))
(assert
 (let ((?x127994 (+ (ite (and (<= 7_y 5) (>= (+ 7_y 3) 5)) 6 0))))
 (<= ?x127994 12)))
(assert
 (let ((?x127967 (+ (ite (and (<= 0_y 6) (>= (+ 0_y 3) 6)) 3 0))))
 (<= ?x127967 12)))
(assert
 (let ((?x127958 (+ (ite (and (<= 1_y 6) (>= (+ 1_y 4) 6)) 3 0))))
 (<= ?x127958 12)))
(assert
 (let ((?x127931 (+ (ite (and (<= 2_y 6) (>= (+ 2_y 5) 6)) 3 0))))
 (<= ?x127931 12)))
(assert
 (let ((?x127922 (+ (ite (and (<= 3_y 6) (>= (+ 3_y 6) 6)) 3 0))))
 (<= ?x127922 12)))
(assert
 (let ((?x127894 (+ (ite (and (<= 4_y 6) (>= (+ 4_y 7) 6)) 3 0))))
 (<= ?x127894 12)))
(assert
 (let ((?x127885 (+ (ite (and (<= 5_y 6) (>= (+ 5_y 8) 6)) 3 0))))
 (<= ?x127885 12)))
(assert
 (let ((?x127858 (+ (ite (and (<= 6_y 6) (>= (+ 6_y 9) 6)) 3 0))))
 (<= ?x127858 12)))
(assert
 (let ((?x127849 (+ (ite (and (<= 7_y 6) (>= (+ 7_y 3) 6)) 6 0))))
 (<= ?x127849 12)))
(assert
 (let ((?x127822 (+ (ite (and (<= 0_y 7) (>= (+ 0_y 3) 7)) 3 0))))
 (<= ?x127822 12)))
(assert
 (let ((?x127813 (+ (ite (and (<= 1_y 7) (>= (+ 1_y 4) 7)) 3 0))))
 (<= ?x127813 12)))
(assert
 (let ((?x127786 (+ (ite (and (<= 2_y 7) (>= (+ 2_y 5) 7)) 3 0))))
 (<= ?x127786 12)))
(assert
 (let ((?x127777 (+ (ite (and (<= 3_y 7) (>= (+ 3_y 6) 7)) 3 0))))
 (<= ?x127777 12)))
(assert
 (let ((?x127750 (+ (ite (and (<= 4_y 7) (>= (+ 4_y 7) 7)) 3 0))))
 (<= ?x127750 12)))
(assert
 (let ((?x127739 (+ (ite (and (<= 5_y 7) (>= (+ 5_y 8) 7)) 3 0))))
 (<= ?x127739 12)))
(assert
 (let ((?x127730 (+ (ite (and (<= 6_y 7) (>= (+ 6_y 9) 7)) 3 0))))
 (<= ?x127730 12)))
(assert
 (let ((?x127710 (+ (ite (and (<= 7_y 7) (>= (+ 7_y 3) 7)) 6 0))))
 (<= ?x127710 12)))
(assert
 (let ((?x127705 (+ (ite (and (<= 0_y 8) (>= (+ 0_y 3) 8)) 3 0))))
 (<= ?x127705 12)))
(assert
 (let ((?x127683 (+ (ite (and (<= 1_y 8) (>= (+ 1_y 4) 8)) 3 0))))
 (<= ?x127683 12)))
(assert
 (let ((?x127674 (+ (ite (and (<= 2_y 8) (>= (+ 2_y 5) 8)) 3 0))))
 (<= ?x127674 12)))
(assert
 (let ((?x127647 (+ (ite (and (<= 3_y 8) (>= (+ 3_y 6) 8)) 3 0))))
 (<= ?x127647 12)))
(assert
 (let ((?x127638 (+ (ite (and (<= 4_y 8) (>= (+ 4_y 7) 8)) 3 0))))
 (<= ?x127638 12)))
(assert
 (let ((?x127611 (+ (ite (and (<= 5_y 8) (>= (+ 5_y 8) 8)) 3 0))))
 (<= ?x127611 12)))
(assert
 (let ((?x127600 (+ (ite (and (<= 6_y 8) (>= (+ 6_y 9) 8)) 3 0))))
 (<= ?x127600 12)))
(assert
 (let ((?x127594 (+ (ite (and (<= 7_y 8) (>= (+ 7_y 3) 8)) 6 0))))
 (<= ?x127594 12)))
(assert
 (let ((?x127572 (+ (ite (and (<= 0_y 9) (>= (+ 0_y 3) 9)) 3 0))))
 (<= ?x127572 12)))
(assert
 (let ((?x127563 (+ (ite (and (<= 1_y 9) (>= (+ 1_y 4) 9)) 3 0))))
 (<= ?x127563 12)))
(assert
 (let ((?x127536 (+ (ite (and (<= 2_y 9) (>= (+ 2_y 5) 9)) 3 0))))
 (<= ?x127536 12)))
(assert
 (let ((?x127527 (+ (ite (and (<= 3_y 9) (>= (+ 3_y 6) 9)) 3 0))))
 (<= ?x127527 12)))
(assert
 (let ((?x127503 (+ (ite (and (<= 4_y 9) (>= (+ 4_y 7) 9)) 3 0))))
 (<= ?x127503 12)))
(assert
 (let ((?x127497 (+ (ite (and (<= 5_y 9) (>= (+ 5_y 8) 9)) 3 0))))
 (<= ?x127497 12)))
(assert
 (let ((?x127471 (+ (ite (and (<= 6_y 9) (>= (+ 6_y 9) 9)) 3 0))))
 (<= ?x127471 12)))
(assert
 (let ((?x127461 (+ (ite (and (<= 7_y 9) (>= (+ 7_y 3) 9)) 6 0))))
 (<= ?x127461 12)))
(assert
 (let ((?x127434 (+ (ite (and (<= 0_y 10) (>= (+ 0_y 3) 10)) 3 0))))
 (<= ?x127434 12)))
(assert
 (let ((?x127425 (+ (ite (and (<= 1_y 10) (>= (+ 1_y 4) 10)) 3 0))))
 (<= ?x127425 12)))
(assert
 (let ((?x127398 (+ (ite (and (<= 2_y 10) (>= (+ 2_y 5) 10)) 3 0))))
 (<= ?x127398 12)))
(assert
 (let ((?x127389 (+ (ite (and (<= 3_y 10) (>= (+ 3_y 6) 10)) 3 0))))
 (<= ?x127389 12)))
(assert
 (let ((?x127379 (+ (ite (and (<= 4_y 10) (>= (+ 4_y 7) 10)) 3 0))))
 (<= ?x127379 12)))
(assert
 (let ((?x127352 (+ (ite (and (<= 5_y 10) (>= (+ 5_y 8) 10)) 3 0))))
 (<= ?x127352 12)))
(assert
 (let ((?x127346 (+ (ite (and (<= 6_y 10) (>= (+ 6_y 9) 10)) 3 0))))
 (<= ?x127346 12)))
(assert
 (let ((?x127324 (+ (ite (and (<= 7_y 10) (>= (+ 7_y 3) 10)) 6 0))))
 (<= ?x127324 12)))
(assert
 (let ((?x127315 (+ (ite (and (<= 0_y 11) (>= (+ 0_y 3) 11)) 3 0))))
 (<= ?x127315 12)))
(assert
 (let ((?x127288 (+ (ite (and (<= 1_y 11) (>= (+ 1_y 4) 11)) 3 0))))
 (<= ?x127288 12)))
(assert
 (let ((?x127279 (+ (ite (and (<= 2_y 11) (>= (+ 2_y 5) 11)) 3 0))))
 (<= ?x127279 12)))
(assert
 (let ((?x127251 (+ (ite (and (<= 3_y 11) (>= (+ 3_y 6) 11)) 3 0))))
 (<= ?x127251 12)))
(assert
 (let ((?x127242 (+ (ite (and (<= 4_y 11) (>= (+ 4_y 7) 11)) 3 0))))
 (<= ?x127242 12)))
(assert
 (let ((?x127215 (+ (ite (and (<= 5_y 11) (>= (+ 5_y 8) 11)) 3 0))))
 (<= ?x127215 12)))
(assert
 (let ((?x127206 (+ (ite (and (<= 6_y 11) (>= (+ 6_y 9) 11)) 3 0))))
 (<= ?x127206 12)))
(assert
 (let ((?x127179 (+ (ite (and (<= 7_y 11) (>= (+ 7_y 3) 11)) 6 0))))
 (<= ?x127179 12)))
(assert
 (let ((?x127170 (+ (ite (and (<= 0_y 12) (>= (+ 0_y 3) 12)) 3 0))))
 (<= ?x127170 12)))
(assert
 (let ((?x127143 (+ (ite (and (<= 1_y 12) (>= (+ 1_y 4) 12)) 3 0))))
 (<= ?x127143 12)))
(assert
 (let ((?x127133 (+ (ite (and (<= 2_y 12) (>= (+ 2_y 5) 12)) 3 0))))
 (<= ?x127133 12)))
(assert
 (let ((?x127106 (+ (ite (and (<= 3_y 12) (>= (+ 3_y 6) 12)) 3 0))))
 (<= ?x127106 12)))
(assert
 (let ((?x127097 (+ (ite (and (<= 4_y 12) (>= (+ 4_y 7) 12)) 3 0))))
 (<= ?x127097 12)))
(assert
 (let ((?x127070 (+ (ite (and (<= 5_y 12) (>= (+ 5_y 8) 12)) 3 0))))
 (<= ?x127070 12)))
(assert
 (let ((?x127061 (+ (ite (and (<= 6_y 12) (>= (+ 6_y 9) 12)) 3 0))))
 (<= ?x127061 12)))
(assert
 (let ((?x127034 (+ (ite (and (<= 7_y 12) (>= (+ 7_y 3) 12)) 6 0))))
 (<= ?x127034 12)))
(assert
 (let ((?x127025 (+ (ite (and (<= 0_y 13) (>= (+ 0_y 3) 13)) 3 0))))
 (<= ?x127025 12)))
(assert
 (let ((?x127015 (+ (ite (and (<= 1_y 13) (>= (+ 1_y 4) 13)) 3 0))))
 (<= ?x127015 12)))
(assert
 (let ((?x126988 (+ (ite (and (<= 2_y 13) (>= (+ 2_y 5) 13)) 3 0))))
 (<= ?x126988 12)))
(assert
 (let ((?x126979 (+ (ite (and (<= 3_y 13) (>= (+ 3_y 6) 13)) 3 0))))
 (<= ?x126979 12)))
(assert
 (let ((?x126952 (+ (ite (and (<= 4_y 13) (>= (+ 4_y 7) 13)) 3 0))))
 (<= ?x126952 12)))
(assert
 (let ((?x126943 (+ (ite (and (<= 5_y 13) (>= (+ 5_y 8) 13)) 3 0))))
 (<= ?x126943 12)))
(assert
 (let ((?x126916 (+ (ite (and (<= 6_y 13) (>= (+ 6_y 9) 13)) 3 0))))
 (<= ?x126916 12)))
(assert
 (let ((?x126906 (+ (ite (and (<= 7_y 13) (>= (+ 7_y 3) 13)) 6 0))))
 (<= ?x126906 12)))
(assert
 (let ((?x126878 (+ (ite (and (<= 0_y 14) (>= (+ 0_y 3) 14)) 3 0))))
 (<= ?x126878 12)))
(assert
 (let ((?x126869 (+ (ite (and (<= 1_y 14) (>= (+ 1_y 4) 14)) 3 0))))
 (<= ?x126869 12)))
(assert
 (let ((?x126842 (+ (ite (and (<= 2_y 14) (>= (+ 2_y 5) 14)) 3 0))))
 (<= ?x126842 12)))
(assert
 (let ((?x126833 (+ (ite (and (<= 3_y 14) (>= (+ 3_y 6) 14)) 3 0))))
 (<= ?x126833 12)))
(assert
 (let ((?x126806 (+ (ite (and (<= 4_y 14) (>= (+ 4_y 7) 14)) 3 0))))
 (<= ?x126806 12)))
(assert
 (let ((?x126797 (+ (ite (and (<= 5_y 14) (>= (+ 5_y 8) 14)) 3 0))))
 (<= ?x126797 12)))
(assert
 (let ((?x126770 (+ (ite (and (<= 6_y 14) (>= (+ 6_y 9) 14)) 3 0))))
 (<= ?x126770 12)))
(assert
 (let ((?x126760 (+ (ite (and (<= 7_y 14) (>= (+ 7_y 3) 14)) 6 0))))
 (<= ?x126760 12)))
(assert
 (let ((?x126751 (+ (ite (and (<= 0_y 15) (>= (+ 0_y 3) 15)) 3 0))))
 (<= ?x126751 12)))
(assert
 (let ((?x126724 (+ (ite (and (<= 1_y 15) (>= (+ 1_y 4) 15)) 3 0))))
 (<= ?x126724 12)))
(assert
 (let ((?x126715 (+ (ite (and (<= 2_y 15) (>= (+ 2_y 5) 15)) 3 0))))
 (<= ?x126715 12)))
(assert
 (let ((?x126688 (+ (ite (and (<= 3_y 15) (>= (+ 3_y 6) 15)) 3 0))))
 (<= ?x126688 12)))
(assert
 (let ((?x126679 (+ (ite (and (<= 4_y 15) (>= (+ 4_y 7) 15)) 3 0))))
 (<= ?x126679 12)))
(assert
 (let ((?x126652 (+ (ite (and (<= 5_y 15) (>= (+ 5_y 8) 15)) 3 0))))
 (<= ?x126652 12)))
(assert
 (let ((?x126643 (+ (ite (and (<= 6_y 15) (>= (+ 6_y 9) 15)) 3 0))))
 (<= ?x126643 12)))
(assert
 (let ((?x126619 (+ (ite (and (<= 7_y 15) (>= (+ 7_y 3) 15)) 6 0))))
 (<= ?x126619 12)))
(assert
 (let ((?x126598 (+ (ite (and (<= 0_y 16) (>= (+ 0_y 3) 16)) 3 0))))
 (<= ?x126598 12)))
(assert
 (let ((?x126589 (+ (ite (and (<= 1_y 16) (>= (+ 1_y 4) 16)) 3 0))))
 (<= ?x126589 12)))
(assert
 (let ((?x126562 (+ (ite (and (<= 2_y 16) (>= (+ 2_y 5) 16)) 3 0))))
 (<= ?x126562 12)))
(assert
 (let ((?x126553 (+ (ite (and (<= 3_y 16) (>= (+ 3_y 6) 16)) 3 0))))
 (<= ?x126553 12)))
(assert
 (let ((?x126526 (+ (ite (and (<= 4_y 16) (>= (+ 4_y 7) 16)) 3 0))))
 (<= ?x126526 12)))
(assert
 (let ((?x126517 (+ (ite (and (<= 5_y 16) (>= (+ 5_y 8) 16)) 3 0))))
 (<= ?x126517 12)))
(assert
 (let ((?x126490 (+ (ite (and (<= 6_y 16) (>= (+ 6_y 9) 16)) 3 0))))
 (<= ?x126490 12)))
(assert
 (let ((?x126481 (+ (ite (and (<= 7_y 16) (>= (+ 7_y 3) 16)) 6 0))))
 (<= ?x126481 12)))
(assert
 (let ((?x126454 (+ (ite (and (<= 0_x 0) (>= (+ 0_x 3) 0)) 3 0))))
 (<= ?x126454 makespan)))
(assert
 (let ((?x126430 (+ (ite (and (<= 1_x 0) (>= (+ 1_x 3) 0)) 4 0))))
 (<= ?x126430 makespan)))
(assert
 (let ((?x126406 (+ (ite (and (<= 2_x 0) (>= (+ 2_x 3) 0)) 5 0))))
 (<= ?x126406 makespan)))
(assert
 (let ((?x126382 (+ (ite (and (<= 3_x 0) (>= (+ 3_x 3) 0)) 6 0))))
 (<= ?x126382 makespan)))
(assert
 (let ((?x126358 (+ (ite (and (<= 4_x 0) (>= (+ 4_x 3) 0)) 7 0))))
 (<= ?x126358 makespan)))
(assert
 (let ((?x126334 (+ (ite (and (<= 5_x 0) (>= (+ 5_x 3) 0)) 8 0))))
 (<= ?x126334 makespan)))
(assert
 (let ((?x126310 (+ (ite (and (<= 6_x 0) (>= (+ 6_x 3) 0)) 9 0))))
 (<= ?x126310 makespan)))
(assert
 (let ((?x126286 (+ (ite (and (<= 7_x 0) (>= (+ 7_x 6) 0)) 3 0))))
 (<= ?x126286 makespan)))
(assert
 (let ((?x126262 (+ (ite (and (<= 0_x 1) (>= (+ 0_x 3) 1)) 3 0))))
 (<= ?x126262 makespan)))
(assert
 (let ((?x6444 (+ (ite (and (<= 1_x 1) (>= (+ 1_x 3) 1)) 4 0))))
 (<= ?x6444 makespan)))
(assert
 (let ((?x126222 (+ (ite (and (<= 2_x 1) (>= (+ 2_x 3) 1)) 5 0))))
 (<= ?x126222 makespan)))
(assert
 (let ((?x126198 (+ (ite (and (<= 3_x 1) (>= (+ 3_x 3) 1)) 6 0))))
 (<= ?x126198 makespan)))
(assert
 (let ((?x126174 (+ (ite (and (<= 4_x 1) (>= (+ 4_x 3) 1)) 7 0))))
 (<= ?x126174 makespan)))
(assert
 (let ((?x126150 (+ (ite (and (<= 5_x 1) (>= (+ 5_x 3) 1)) 8 0))))
 (<= ?x126150 makespan)))
(assert
 (let ((?x126126 (+ (ite (and (<= 6_x 1) (>= (+ 6_x 3) 1)) 9 0))))
 (<= ?x126126 makespan)))
(assert
 (let ((?x126102 (+ (ite (and (<= 7_x 1) (>= (+ 7_x 6) 1)) 3 0))))
 (<= ?x126102 makespan)))
(assert
 (let ((?x126078 (+ (ite (and (<= 0_x 2) (>= (+ 0_x 3) 2)) 3 0))))
 (<= ?x126078 makespan)))
(assert
 (let ((?x126054 (+ (ite (and (<= 1_x 2) (>= (+ 1_x 3) 2)) 4 0))))
 (<= ?x126054 makespan)))
(assert
 (let ((?x126047 (+ (ite (and (<= 2_x 2) (>= (+ 2_x 3) 2)) 5 0))))
 (<= ?x126047 makespan)))
(assert
 (let ((?x126023 (+ (ite (and (<= 3_x 2) (>= (+ 3_x 3) 2)) 6 0))))
 (<= ?x126023 makespan)))
(assert
 (let ((?x125999 (+ (ite (and (<= 4_x 2) (>= (+ 4_x 3) 2)) 7 0))))
 (<= ?x125999 makespan)))
(assert
 (let ((?x125975 (+ (ite (and (<= 5_x 2) (>= (+ 5_x 3) 2)) 8 0))))
 (<= ?x125975 makespan)))
(assert
 (let ((?x125951 (+ (ite (and (<= 6_x 2) (>= (+ 6_x 3) 2)) 9 0))))
 (<= ?x125951 makespan)))
(assert
 (let ((?x125927 (+ (ite (and (<= 7_x 2) (>= (+ 7_x 6) 2)) 3 0))))
 (<= ?x125927 makespan)))
(assert
 (let ((?x125903 (+ (ite (and (<= 0_x 3) (>= (+ 0_x 3) 3)) 3 0))))
 (<= ?x125903 makespan)))
(assert
 (let ((?x125878 (+ (ite (and (<= 1_x 3) (>= (+ 1_x 3) 3)) 4 0))))
 (<= ?x125878 makespan)))
(assert
 (let ((?x125856 (+ (ite (and (<= 2_x 3) (>= (+ 2_x 3) 3)) 5 0))))
 (<= ?x125856 makespan)))
(assert
 (let ((?x125836 (+ (ite (and (<= 3_x 3) (>= (+ 3_x 3) 3)) 6 0))))
 (<= ?x125836 makespan)))
(assert
 (let ((?x125811 (+ (ite (and (<= 4_x 3) (>= (+ 4_x 3) 3)) 7 0))))
 (<= ?x125811 makespan)))
(assert
 (let ((?x125786 (+ (ite (and (<= 5_x 3) (>= (+ 5_x 3) 3)) 8 0))))
 (<= ?x125786 makespan)))
(assert
 (let ((?x125779 (+ (ite (and (<= 6_x 3) (>= (+ 6_x 3) 3)) 9 0))))
 (<= ?x125779 makespan)))
(assert
 (let ((?x125754 (+ (ite (and (<= 7_x 3) (>= (+ 7_x 6) 3)) 3 0))))
 (<= ?x125754 makespan)))
(assert
 (let ((?x125730 (+ (ite (and (<= 0_x 4) (>= (+ 0_x 3) 4)) 3 0))))
 (<= ?x125730 makespan)))
(assert
 (let ((?x125706 (+ (ite (and (<= 1_x 4) (>= (+ 1_x 3) 4)) 4 0))))
 (<= ?x125706 makespan)))
(assert
 (let ((?x125682 (+ (ite (and (<= 2_x 4) (>= (+ 2_x 3) 4)) 5 0))))
 (<= ?x125682 makespan)))
(assert
 (let ((?x125658 (+ (ite (and (<= 3_x 4) (>= (+ 3_x 3) 4)) 6 0))))
 (<= ?x125658 makespan)))
(assert
 (let ((?x125634 (+ (ite (and (<= 4_x 4) (>= (+ 4_x 3) 4)) 7 0))))
 (<= ?x125634 makespan)))
(assert
 (let ((?x125610 (+ (ite (and (<= 5_x 4) (>= (+ 5_x 3) 4)) 8 0))))
 (<= ?x125610 makespan)))
(assert
 (let ((?x125586 (+ (ite (and (<= 6_x 4) (>= (+ 6_x 3) 4)) 9 0))))
 (<= ?x125586 makespan)))
(assert
 (let ((?x125562 (+ (ite (and (<= 7_x 4) (>= (+ 7_x 6) 4)) 3 0))))
 (<= ?x125562 makespan)))
(assert
 (let ((?x125538 (+ (ite (and (<= 0_x 5) (>= (+ 0_x 3) 5)) 3 0))))
 (<= ?x125538 makespan)))
(assert
 (let ((?x125514 (+ (ite (and (<= 1_x 5) (>= (+ 1_x 3) 5)) 4 0))))
 (<= ?x125514 makespan)))
(assert
 (let ((?x125490 (+ (ite (and (<= 2_x 5) (>= (+ 2_x 3) 5)) 5 0))))
 (<= ?x125490 makespan)))
(assert
 (let ((?x125466 (+ (ite (and (<= 3_x 5) (>= (+ 3_x 3) 5)) 6 0))))
 (<= ?x125466 makespan)))
(assert
 (let ((?x125442 (+ (ite (and (<= 4_x 5) (>= (+ 4_x 3) 5)) 7 0))))
 (<= ?x125442 makespan)))
(assert
 (let ((?x125418 (+ (ite (and (<= 5_x 5) (>= (+ 5_x 3) 5)) 8 0))))
 (<= ?x125418 makespan)))
(assert
 (let ((?x125394 (+ (ite (and (<= 6_x 5) (>= (+ 6_x 3) 5)) 9 0))))
 (<= ?x125394 makespan)))
(assert
 (let ((?x125373 (+ (ite (and (<= 7_x 5) (>= (+ 7_x 6) 5)) 3 0))))
 (<= ?x125373 makespan)))
(assert
 (let ((?x125354 (+ (ite (and (<= 0_x 6) (>= (+ 0_x 3) 6)) 3 0))))
 (<= ?x125354 makespan)))
(assert
 (let ((?x125330 (+ (ite (and (<= 1_x 6) (>= (+ 1_x 3) 6)) 4 0))))
 (<= ?x125330 makespan)))
(assert
 (let ((?x125306 (+ (ite (and (<= 2_x 6) (>= (+ 2_x 3) 6)) 5 0))))
 (<= ?x125306 makespan)))
(assert
 (let ((?x125282 (+ (ite (and (<= 3_x 6) (>= (+ 3_x 3) 6)) 6 0))))
 (<= ?x125282 makespan)))
(assert
 (let ((?x125258 (+ (ite (and (<= 4_x 6) (>= (+ 4_x 3) 6)) 7 0))))
 (<= ?x125258 makespan)))
(assert
 (let ((?x125234 (+ (ite (and (<= 5_x 6) (>= (+ 5_x 3) 6)) 8 0))))
 (<= ?x125234 makespan)))
(assert
 (let ((?x125210 (+ (ite (and (<= 6_x 6) (>= (+ 6_x 3) 6)) 9 0))))
 (<= ?x125210 makespan)))
(assert
 (let ((?x125184 (+ (ite (and (<= 7_x 6) (>= (+ 7_x 6) 6)) 3 0))))
 (<= ?x125184 makespan)))
(assert
 (let ((?x125159 (+ (ite (and (<= 0_x 7) (>= (+ 0_x 3) 7)) 3 0))))
 (<= ?x125159 makespan)))
(assert
 (let ((?x125135 (+ (ite (and (<= 1_x 7) (>= (+ 1_x 3) 7)) 4 0))))
 (<= ?x125135 makespan)))
(assert
 (let ((?x125111 (+ (ite (and (<= 2_x 7) (>= (+ 2_x 3) 7)) 5 0))))
 (<= ?x125111 makespan)))
(assert
 (let ((?x125087 (+ (ite (and (<= 3_x 7) (>= (+ 3_x 3) 7)) 6 0))))
 (<= ?x125087 makespan)))
(assert
 (let ((?x125063 (+ (ite (and (<= 4_x 7) (>= (+ 4_x 3) 7)) 7 0))))
 (<= ?x125063 makespan)))
(assert
 (let ((?x125046 (+ (ite (and (<= 5_x 7) (>= (+ 5_x 3) 7)) 8 0))))
 (<= ?x125046 makespan)))
(assert
 (let ((?x125023 (+ (ite (and (<= 6_x 7) (>= (+ 6_x 3) 7)) 9 0))))
 (<= ?x125023 makespan)))
(assert
 (let ((?x124999 (+ (ite (and (<= 7_x 7) (>= (+ 7_x 6) 7)) 3 0))))
 (<= ?x124999 makespan)))
(assert
 (let ((?x124975 (+ (ite (and (<= 0_x 8) (>= (+ 0_x 3) 8)) 3 0))))
 (<= ?x124975 makespan)))
(assert
 (let ((?x124959 (+ (ite (and (<= 1_x 8) (>= (+ 1_x 3) 8)) 4 0))))
 (<= ?x124959 makespan)))
(assert
 (let ((?x124940 (+ (ite (and (<= 2_x 8) (>= (+ 2_x 3) 8)) 5 0))))
 (<= ?x124940 makespan)))
(assert
 (let ((?x124916 (+ (ite (and (<= 3_x 8) (>= (+ 3_x 3) 8)) 6 0))))
 (<= ?x124916 makespan)))
(assert
 (let ((?x124892 (+ (ite (and (<= 4_x 8) (>= (+ 4_x 3) 8)) 7 0))))
 (<= ?x124892 makespan)))
(assert
 (let ((?x124868 (+ (ite (and (<= 5_x 8) (>= (+ 5_x 3) 8)) 8 0))))
 (<= ?x124868 makespan)))
(assert
 (let ((?x124844 (+ (ite (and (<= 6_x 8) (>= (+ 6_x 3) 8)) 9 0))))
 (<= ?x124844 makespan)))
(assert
 (let ((?x124823 (+ (ite (and (<= 7_x 8) (>= (+ 7_x 6) 8)) 3 0))))
 (<= ?x124823 makespan)))
(assert
 (let ((?x124803 (+ (ite (and (<= 0_x 9) (>= (+ 0_x 3) 9)) 3 0))))
 (<= ?x124803 makespan)))
(assert
 (let ((?x124796 (+ (ite (and (<= 1_x 9) (>= (+ 1_x 3) 9)) 4 0))))
 (<= ?x124796 makespan)))
(assert
 (let ((?x124771 (+ (ite (and (<= 2_x 9) (>= (+ 2_x 3) 9)) 5 0))))
 (<= ?x124771 makespan)))
(assert
 (let ((?x124746 (+ (ite (and (<= 3_x 9) (>= (+ 3_x 3) 9)) 6 0))))
 (<= ?x124746 makespan)))
(assert
 (let ((?x124721 (+ (ite (and (<= 4_x 9) (>= (+ 4_x 3) 9)) 7 0))))
 (<= ?x124721 makespan)))
(assert
 (let ((?x124696 (+ (ite (and (<= 5_x 9) (>= (+ 5_x 3) 9)) 8 0))))
 (<= ?x124696 makespan)))
(assert
 (let ((?x3845 (+ (ite (and (<= 6_x 9) (>= (+ 6_x 3) 9)) 9 0))))
 (<= ?x3845 makespan)))
(assert
 (let ((?x124655 (+ (ite (and (<= 7_x 9) (>= (+ 7_x 6) 9)) 3 0))))
 (<= ?x124655 makespan)))
(assert
 (let ((?x124631 (+ (ite (and (<= 0_x 10) (>= (+ 0_x 3) 10)) 3 0))))
 (<= ?x124631 makespan)))
(assert
 (let ((?x124607 (+ (ite (and (<= 1_x 10) (>= (+ 1_x 3) 10)) 4 0))))
 (<= ?x124607 makespan)))
(assert
 (let ((?x124583 (+ (ite (and (<= 2_x 10) (>= (+ 2_x 3) 10)) 5 0))))
 (<= ?x124583 makespan)))
(assert
 (let ((?x124563 (+ (ite (and (<= 3_x 10) (>= (+ 3_x 3) 10)) 6 0))))
 (<= ?x124563 makespan)))
(assert
 (let ((?x124539 (+ (ite (and (<= 4_x 10) (>= (+ 4_x 3) 10)) 7 0))))
 (<= ?x124539 makespan)))
(assert
 (let ((?x124515 (+ (ite (and (<= 5_x 10) (>= (+ 5_x 3) 10)) 8 0))))
 (<= ?x124515 makespan)))
(assert
 (let ((?x124491 (+ (ite (and (<= 6_x 10) (>= (+ 6_x 3) 10)) 9 0))))
 (<= ?x124491 makespan)))
(assert
 (let ((?x124467 (+ (ite (and (<= 7_x 10) (>= (+ 7_x 6) 10)) 3 0))))
 (<= ?x124467 makespan)))
(assert
 (let ((?x124443 (+ (ite (and (<= 0_x 11) (>= (+ 0_x 3) 11)) 3 0))))
 (<= ?x124443 makespan)))
(assert
 (let ((?x9624 (+ (ite (and (<= 1_x 11) (>= (+ 1_x 3) 11)) 4 0))))
 (<= ?x9624 makespan)))
(assert
 (let ((?x124403 (+ (ite (and (<= 2_x 11) (>= (+ 2_x 3) 11)) 5 0))))
 (<= ?x124403 makespan)))
(assert
 (let ((?x124379 (+ (ite (and (<= 3_x 11) (>= (+ 3_x 3) 11)) 6 0))))
 (<= ?x124379 makespan)))
(assert
 (let ((?x20331 (+ (ite (and (<= 4_x 11) (>= (+ 4_x 3) 11)) 7 0))))
 (<= ?x20331 makespan)))
(assert
 (let ((?x124348 (+ (ite (and (<= 5_x 11) (>= (+ 5_x 3) 11)) 8 0))))
 (<= ?x124348 makespan)))
(assert
 (let ((?x124324 (+ (ite (and (<= 6_x 11) (>= (+ 6_x 3) 11)) 9 0))))
 (<= ?x124324 makespan)))
(assert
 (let ((?x124300 (+ (ite (and (<= 7_x 11) (>= (+ 7_x 6) 11)) 3 0))))
 (<= ?x124300 makespan)))
(check-sat)
